param set_len = 26;
param target_sum = 3871371;
param values := [1] 522653 [2] 217996 [3] 281587 [4] 184827 [5] 237411 [6] 281337 [7] 261791 [8] 98284 [9] 393135 [10] 204450 [11] 350251 [12] 220735 [13] 171210 [14] 158187 [15] 366070 [16] 166468 [17] 304174 [18] 343937 [19] 366953 [20] 399445 [21] 446434 [22] 200487 [23] 427290 [24] 271775 [25] 125674 [26] 430815 ;
